306
9
303
32
233
246
12
308
115
307
133
138
114
254
49
241
324
9
59
203
66
294
235
12
190
67
259
50
227
313
192
3
149
25
65
325
108
313
267
130
97
117
116
46
11
224
23
277
246
28
37
163
154
180
212
159
246
80
136
52
199
272
173
60
149
294
72
88
172
307
71
211
11
136
67
151
213
129
163
161
129
5
164
264
209
235
196
225
214
6
184
148
161
226
266
205
189
87
79
314
